TOUR_SECTION
82
116
105
165
63
147
88
137
7
99
198
136
18
56
185
38
60
121
166
193
33
104
131
49
30
100
15
61
153
154
182
54
43
150
174
148
78
144
12
23
119
58
96
35
94
19
34
21
159
22
95
169
117
85
97
160
151
194
126
187
107
5
155
161
138
168
32
93
122
183
139
157
25
1
6
27
146
86
48
196
123
118
8
110
195
71
44
89
164
3
37
200
173
45
177
76
106
140
68
36
186
53
127
83
142
57
172
55
26
189
70
69
184
9
102
20
124
191
188
181
11
73
16
52
156
10
199
98
113
103
158
41
72
128
115
87
149
114
51
133
163
167
62
170
130
175
4
75
101
40
176
125
17
129
59
132
74
13
197
112
162
180
179
145
64
84
39
29
91
152
14
135
31
120
42
50
141
111
92
24
28
190
134
47
81
77
46
109
80
171
2
67
90
66
79
65
108
192
178
143
-1
EOF